CMD:
./solvers/bin/cadical --plain --no-reduce -t 1600 ./data/cnfs//qspiflash_qflexpress_divfive-p036/qspiflash_qflexpress_divfive-p036.74.cnf

c --- [ banner ] -------------------------------------------------------------
c 
c CaDiCaL SAT Solver
c Copyright (c) 2016-2024
c A. Biere, M. Fleury, N. Froleyks, K. Fazekas, F. Pollitt, T. Faller
c JKU Linz, University of Freiburg, TU Wien
c 
c Version 2.1.3 5296d3d2a9bf48c154ab2acb5e44625776d821bf
c g++ (Gentoo 12.3.1_p20230526 p2) 12.3.1 20230526 -Wall -Wextra -O3 -DNDEBUG
c Sat Aug 9 07:26:21 PDT 2025 Linux cedar2.int.cedar.computecanada.ca 5.14.0-362.24.2.el9_3.x86_64 x86_64
c 
c --- [ limit ] --------------------------------------------------------------
c 
c setting time limit to 1600 seconds real time (due to '-t 1600')
c 
c --- [ parsing input ] ------------------------------------------------------
c 
c reading DIMACS file from './data/cnfs//qspiflash_qflexpress_divfive-p036/qspiflash_qflexpress_divfive-p036.74.cnf'
c opening file to read './data/cnfs//qspiflash_qflexpress_divfive-p036/qspiflash_qflexpress_divfive-p036.74.cnf'
c found 'p cnf 197195 575009' header
c parsed 575009 clauses in 0.09 seconds process time
c 
c --- [ options ] ------------------------------------------------------------
c 
c   --compact=false                (different from default 'true')
c   --decompose=false              (different from default 'true')
c   --deduplicate=false            (different from default 'true')
c   --elim=false                   (different from default 'true')
c   --probe=false                  (different from default 'true')
c   --reduce=false                 (different from default 'true')
c   --subsume=false                (different from default 'true')
c   --ternary=false                (different from default 'true')
c   --transred=false               (different from default 'true')
c   --vivify=false                 (different from default 'true')
c 
c --- [ solving ] ------------------------------------------------------------
c 
c time measured in process time since initialization
c 
c  seconds  reductions  redundant  irredundant
c         MB    restarts       trail       variables
c          level   conflicts       glue          remaining
c 
c *  0.09 91  0 0   0    0    0  0% 0 559405 187427 95%
c {  0.13 94  0 0   0    0    0  0% 0 559405 187427 95%
c i  0.15 94 79 0   0   10    8 17% 2 559405 187408 95%
c i  0.16 95 158 0   0  142  132 13% 9 559405 187358 95%
c i  0.17 95 151 0   0  153  138 13% 9 559405 187347 95%
c i  0.19 95 127 0   0  188  166 13% 8 559405 187113 95%
c i  0.19 95 127 0   0  192  169 13% 8 559405 187089 95%
c i  0.29 95 76 0   6  935  886 14% 20 559405 186990 95%
c i  0.29 95 75 0   6  958  907 14% 20 559405 186989 95%
c i  0.30 95 75 0   6  960  908 14% 20 559405 186988 95%
c i  0.30 95 74 0   6  974  920 14% 19 559405 186987 95%
c i  0.30 95 74 0   6  982  927 14% 19 559405 186986 95%
c i  0.30 95 74 0   6  985  929 14% 19 559405 186985 95%
c }  0.30 95 74 0   6 1001  942 14% 19 559405 186985 95%
c [  0.30 95  0 0   6 1001  942  0% 0 559405 186985 95%
c O  0.33 95 1063 0   6 1002  943 95% 1 559405 186985 95%
c i  0.34 95 1032 0   6 1138 1067 92% 4 559405 186981 95%
c i  0.35 95 1008 0   6 1342 1251 89% 5 559405 186977 95%
c i  0.37 96 996 0   6 1512 1409 88% 5 559405 186973 95%
c i  0.39 96 983 0   6 1766 1643 87% 5 559405 186969 95%
c 
c  seconds   reductions  redundant  irredundant
c         MB     restarts       trail       variables
c           level   conflicts       glue          remaining
c 
c i  0.48 96 788 0   7 2303 2136 71% 6 559405 186968 95%
c ]  0.58 96 560 0   7 3003 2772 58% 8 559405 186968 95%
c {  0.58 96 74 0   7 3003 2772 14% 19 559405 186968 95%
c F  0.58 96 74 0   7 3004 2773 14% 19 559405 186968 95%
c i  0.59 96 72 0   7 3078 2841 14% 18 559405 186964 95%
c i  0.60 96 70 0   7 3152 2906 15% 17 559405 186961 95%
c i  0.60 96 70 0   7 3168 2913 15% 17 559405 186956 95%
c i  0.60 96 69 0   7 3224 2948 16% 16 559405 186909 95%
c i  0.64 96 65 0   7 3610 3293 18% 13 559405 186905 95%
c i  0.70 96 62 0   7 4173 3799 19% 11 559405 186901 95%
c i  0.75 96 60 0   7 4610 4173 20% 10 559405 186897 95%
c i  0.78 96 56 0   7 4836 4347 19% 10 559405 186893 95%
c i  0.81 96 61 0   7 5076 4567 19% 10 559405 186892 95%
c i  0.84 96 66 0  10 5414 4876 18% 9 559405 186546 95%
c i  0.85 96 65 0  10 5587 5034 18% 9 559405 186545 95%
c i  0.86 96 66 0  10 5677 5112 18% 9 559405 186544 95%
c i  0.87 96 66 0  12 5706 5137 18% 9 559405 186540 95%
c #  0.91 97 66 0  23 6005 5394 18% 9 559405 186540 95%
c i  0.91 97 66 0  25 6010 5398 18% 9 559405 186536 95%
c i  0.92 97 65 0  29 6070 5443 18% 9 559405 186412 95%
c 
c  seconds  reductions  redundant  irredundant
c         MB    restarts       trail       variables
c          level   conflicts       glue          remaining
c 
c i  0.93 97 64 0  29 6141 5500 18% 9 559405 186404 95%
c i  0.93 97 64 0  29 6147 5505 18% 9 559405 186401 95%
c i  0.94 97 63 0  29 6216 5564 18% 9 559405 186397 95%
c i  0.95 97 61 0  29 6332 5657 17% 9 559405 186353 95%
c i  0.96 97 60 0  29 6407 5699 17% 9 559405 186186 94%
c i  0.96 97 60 0  29 6433 5715 17% 9 559405 185953 94%
c i  0.98 97 61 0  29 6578 5844 17% 8 559405 185952 94%
c i  1.00 97 62 0  30 6757 6003 17% 8 559405 185951 94%
c }  1.04 97 65 0  32 7003 6223 17% 8 559405 185951 94%
c [  1.04 97 560 0  32 7003 6223 58% 8 559405 185951 94%
c i  1.04 97 558 0  32 7011 6229 58% 8 559405 185908 94%
c i  1.07 97 532 0  33 7166 6372 56% 8 559405 185907 94%
c i  1.22 97 374 0  33 8601 7653 46% 9 559405 185906 94%
c i  1.49 97 288 0  34 9967 8815 39% 9 559405 185902 94%
c i  1.50 97 287 0  34 9997 8840 38% 9 559405 185898 94%
c I  1.50 97 286 0  34 10007 8848 38% 9 559405 185898 94%
c i  1.73 98 235 0  36 11473 10107 33% 9 559405 185897 94%
c i  1.74 98 231 0  36 11629 10244 33% 9 559405 185896 94%
c i  1.75 98 229 0  36 11708 10303 33% 9 559405 185895 94%
c i  1.82 98 225 0  36 12065 10597 32% 9 559405 185887 94%
c 
c  seconds   reductions    redundant  irredundant
c         MB     restarts         trail       variables
c           level    conflicts        glue          remaining
c 
c i  1.82 98 225 0  36 12069 10599 32% 9 559405 185883 94%
c i  1.97 98 212 0  36 12870 11304 31% 9 559405 185879 94%
c i  2.00 98 211 0  36 13012 11425 31% 9 559405 185085 94%
c i  2.01 98 211 0  36 13081 11480 31% 9 559405 184740 94%
c i  2.10 98 206 0  36 13397 11761 30% 9 559405 184700 94%
c i  2.23 98 192 0  37 14122 12388 29% 9 559405 184696 94%
c ]  2.38 98 177 0  37 15006 13143 27% 9 559405 184696 94%
c {  2.39 98 65 0  37 15006 13143 17% 8 559405 184696 94%
c B  2.39 98 65 0  37 15008 13145 17% 8 559405 184696 94%
c i  2.40 98 65 0  37 15083 13206 18% 8 559405 184692 94%
c i  2.42 98 65 0  37 15199 13307 18% 8 559405 184688 94%
c i  2.45 98 65 0  37 15315 13404 18% 8 559405 184687 94%
c i  2.45 98 65 0  37 15319 13406 18% 8 559405 184656 94%
c i  2.54 98 65 0  40 15717 13740 18% 8 559405 184528 94%
c i  2.56 98 64 0  40 15854 13848 18% 8 559405 184524 94%
c i  2.66 99 61 0  40 16507 14431 19% 7 559405 184281 93%
c i  2.66 99 61 0  40 16513 14433 19% 7 559405 184268 93%
c i  2.67 99 61 0  40 16567 14462 19% 7 559405 184263 93%
c }  2.68 99 61 0  40 16577 14465 18% 7 559405 181766 92%
c 0  2.68 99 61 0  40 16577 14465 18% 7 559405 181766 92%
c 
c --- [ result ] -------------------------------------------------------------
c 
s UNSATISFIABLE
c 
c --- [ run-time profiling ] -------------------------------------------------
c 
c process time taken by individual solving procedures
c (percentage relative to process time for solving)
c 
c         2.59  100.00% search
c         1.63   63.06% stable
c         0.91   35.26% unstable
c         0.09    3.46% parse
c         0.04    1.68% lucky
c         0.00    0.00% simplify
c   =================================
c         2.59   96.64% solve
c 
c last line shows process time for solving
c (percentage relative to total process time)
c 
c --- [ statistics ] ---------------------------------------------------------
c 
c chronological:              6286        37.92 %  of conflicts
c conflicts:                 16577      6411.17    per second
c decisions:                 34289     13261.29    per second
c fixed:                     15428         7.82 %  of all variables
c learned:                   15897        95.90 %  per conflict
c learned_lits:             456067       100.00 %  learned literals
c minimized:                     0         0.00 %  learned literals
c shrunken:                  65994        14.47 %  learned literals
c minishrunken:              73712        16.16 %  learned literals
c otfs:                        306         1.85 %  of conflict
c propagations:           37771081        14.61 M  per second
c rephased:                      5      3315.40    interval
c restarts:                     40       414.43    interval
c stabilizing:                   2        60.34 %  of conflicts
c subsumed:                   1369         0.24 %  of all clauses
c strengthened:                303         0.05 %  of all clauses
c 
c seconds are measured in process time for solving
c 
c --- [ resources ] ----------------------------------------------------------
c 
c total process time since initialization:         2.68    seconds
c total real time since initialization:            2.69    seconds
c maximum resident set size of process:           97.63    MB
c 
c --- [ shutting down ] ------------------------------------------------------
c 
c exit 20
